997772
0, 47, 69, 12, 62, 67, 98, 79, 43, 54, 71, 35, 49, 87, 34, 41, 96, 7, 52, 90, 88, 84, 2, 4, 63, 1, 26, 66, 60, 82, 14, 15, 57, 81, 37, 75, 86, 80, 3, 6, 65, 44, 85, 13, 38, 91, 72, 21, 83, 23, 42, 51, 64, 53, 45, 27, 10, 22, 97, 33, 70, 89, 58, 18, 11, 25, 16, 93, 50, 39, 28, 78, 24, 77, 94, 46, 56, 8, 32, 19, 20, 76, 68, 9, 55, 17, 40, 5, 74, 48, 92, 29, 95, 61, 30, 59, 31, 73, 36
